solution status: optimal solution found
objective value:                                    0
thingy.thingy.chamber[7].first.ring_y                  -15 	(obj:0)
thingy.thingy.chamber[7].first.ring_z                   -6 	(obj:0)
thingy.thingy.chamber[0].first.vpump3.valves[0].vinlet_y                  -11 	(obj:0)
thingy.thingy.chamber[0].first.vpump3.valves[0].vinlet_z                   -6 	(obj:0)
thingy.thingy.chamber[1].first.voutlet_y                  -13 	(obj:0)
thingy.thingy.chamber[1].first.voutlet_z                   -9 	(obj:0)
thingy.thingy.chamber[7].first.vring_out_y                  -16 	(obj:0)
thingy.thingy.chamber[7].first.vring_out_z                  -10 	(obj:0)
thingy.thingy.chamber[8].first.vpump3.valves[0].vinlet_y                  -11 	(obj:0)
thingy.thingy.chamber[8].first.vpump3.valves[0].vinlet_z                   -8 	(obj:0)
thingy.flush_pump_pinholes[0].hole_y                  -16 	(obj:0)
thingy.flush_pump_pinholes[0].hole_z                   -9 	(obj:0)
thingy.thingy.chamber[5].first.vring_out_y                  -13 	(obj:0)
thingy.thingy.chamber[5].first.vring_out_z                   -5 	(obj:0)
thingy.flush_prep_inlet_hole_y                    -17 	(obj:0)
thingy.flush_prep_inlet_hole_z                     -8 	(obj:0)
thingy.thingy.chamber[4].first.vpump3.valves[0].vinlet_y                  -13 	(obj:0)
thingy.thingy.chamber[4].first.vpump3.valves[0].vinlet_z                   -6 	(obj:0)
thingy.thingy.chamber[5].first.voutlet_y                  -14 	(obj:0)
thingy.thingy.chamber[5].first.voutlet_z                   -2 	(obj:0)
thingy.pump_pinholes[0].hole_y                     -9 	(obj:0)
thingy.pump_pinholes[0].hole_z                     -7 	(obj:0)
thingy.thingy.chamber[3].first.voutlet_y                  -12 	(obj:0)
thingy.thingy.chamber[3].first.voutlet_z                   -6 	(obj:0)
thingy.thingy.chamber[4].first.ring_y                  -15 	(obj:0)
thingy.thingy.chamber[4].first.ring_z                   -8 	(obj:0)
thingy.thingy.chamber[9].first.voutlet_y                  -16 	(obj:0)
thingy.thingy.chamber[9].first.voutlet_z                  -12 	(obj:0)
thingy.thingy.chamber[4].first.vring_out_y                  -12 	(obj:0)
thingy.thingy.chamber[4].first.vring_out_z                   -8 	(obj:0)
thingy.thingy.chamber[0].first.voutlet_y                   -9 	(obj:0)
thingy.thingy.chamber[0].first.voutlet_z                   -8 	(obj:0)
thingy.flush_pump_pinholes[1].hole_y                  -12 	(obj:0)
thingy.flush_pump_pinholes[1].hole_z                  -10 	(obj:0)
thingy.thingy.chamber[6].first.ring_y                  -16 	(obj:0)
thingy.thingy.chamber[6].first.ring_z                   -4 	(obj:0)
thingy.thingy.chamber[7].first.vpump3.valves[0].vinlet_y                  -16 	(obj:0)
thingy.thingy.chamber[7].first.vpump3.valves[0].vinlet_z                   -6 	(obj:0)
thingy.thingy.chamber[9].first.ring_y                  -16 	(obj:0)
thingy.thingy.chamber[9].first.ring_z                   -8 	(obj:0)
thingy.thingy.chamber[6].first.voutlet_y                  -16 	(obj:0)
thingy.thingy.chamber[6].first.voutlet_z                   -3 	(obj:0)
thingy.thingy.chamber[0].first.vring_out_y                  -13 	(obj:0)
thingy.thingy.chamber[0].first.vring_out_z                  -11 	(obj:0)
thingy.thingy.chamber[9].first.vring_out_y                  -16 	(obj:0)
thingy.thingy.chamber[9].first.vring_out_z                  -11 	(obj:0)
thingy.thingy.prep.v1_y                           -18 	(obj:0)
thingy.thingy.prep.v1_z                           -10 	(obj:0)
thingy.thingy.chamber[8].first.vring_out_y                  -15 	(obj:0)
thingy.thingy.chamber[8].first.vring_out_z                  -11 	(obj:0)
thingy.thingy.prep.vout1_y                        -21 	(obj:0)
thingy.thingy.prep.vout1_z                         -7 	(obj:0)
thingy.thingy.chamber[2].first.vpump3.valves[0].vinlet_y                  -14 	(obj:0)
thingy.thingy.chamber[2].first.vpump3.valves[0].vinlet_z                   -7 	(obj:0)
thingy.thingy.chamber[6].first.vring_out_y                  -16 	(obj:0)
thingy.thingy.chamber[6].first.vring_out_z                   -7 	(obj:0)
thingy.thingy.chamber[3].first.vpump3.valves[0].vinlet_y                  -10 	(obj:0)
thingy.thingy.chamber[3].first.vpump3.valves[0].vinlet_z                   -8 	(obj:0)
thingy.thingy.chamber[2].first.voutlet_y                  -14 	(obj:0)
thingy.thingy.chamber[2].first.voutlet_z                   -3 	(obj:0)
thingy.thingy.chamber[7].first.voutlet_y                  -15 	(obj:0)
thingy.thingy.chamber[7].first.voutlet_z                  -10 	(obj:0)
thingy.thingy.prep.v2_y                           -17 	(obj:0)
thingy.thingy.prep.v2_z                           -10 	(obj:0)
thingy.thingy.chamber[5].first.ring_y                  -13 	(obj:0)
thingy.thingy.chamber[5].first.ring_z                   -7 	(obj:0)
thingy.thingy.chamber[4].first.voutlet_y                  -12 	(obj:0)
thingy.thingy.chamber[4].first.voutlet_z                   -9 	(obj:0)
thingy.thingy.chamber[0].first.ring_y                  -10 	(obj:0)
thingy.thingy.chamber[0].first.ring_z                   -7 	(obj:0)
thingy.thingy.chamber[1].first.vpump3.valves[0].vinlet_y                  -14 	(obj:0)
thingy.thingy.chamber[1].first.vpump3.valves[0].vinlet_z                   -8 	(obj:0)
thingy.ctrl_prep_inlet_hole_y                     -17 	(obj:0)
thingy.ctrl_prep_inlet_hole_z                     -11 	(obj:0)
thingy.pump_pinholes[1].hole_y                    -13 	(obj:0)
thingy.pump_pinholes[1].hole_z                    -10 	(obj:0)
thingy.thingy.chamber[2].first.ring_y                  -16 	(obj:0)
thingy.thingy.chamber[2].first.ring_z                   -5 	(obj:0)
thingy.thingy.chamber[1].first.ring_y                  -13 	(obj:0)
thingy.thingy.chamber[1].first.ring_z                   -4 	(obj:0)
thingy.thingy.chamber[8].first.ring_y                  -15 	(obj:0)
thingy.thingy.chamber[8].first.ring_z                   -7 	(obj:0)
thingy.thingy.chamber[6].first.vpump3.valves[0].vinlet_y                  -13 	(obj:0)
thingy.thingy.chamber[6].first.vpump3.valves[0].vinlet_z                   -2 	(obj:0)
thingy.thingy.chamber[2].first.vring_out_y                  -12 	(obj:0)
thingy.thingy.chamber[2].first.vring_out_z                   -7 	(obj:0)
thingy.thingy.chamber[5].first.vpump3.valves[0].vinlet_y                  -14 	(obj:0)
thingy.thingy.chamber[5].first.vpump3.valves[0].vinlet_z                   -6 	(obj:0)
thingy.thingy.chamber[9].first.vpump3.valves[0].vinlet_y                  -13 	(obj:0)
thingy.thingy.chamber[9].first.vpump3.valves[0].vinlet_z                   -8 	(obj:0)
thingy.thingy.chamber[8].first.voutlet_y                  -15 	(obj:0)
thingy.thingy.chamber[8].first.voutlet_z                  -12 	(obj:0)
thingy.thingy.chamber[1].first.vring_out_y                  -15 	(obj:0)
thingy.thingy.chamber[1].first.vring_out_z                   -5 	(obj:0)
thingy.thingy.chamber[3].first.vring_out_y                   -6 	(obj:0)
thingy.thingy.chamber[3].first.vring_out_z                   -2 	(obj:0)
thingy.thingy.chamber[3].first.ring_y                  -10 	(obj:0)
thingy.thingy.chamber[3].first.ring_z                   -6 	(obj:0)
